NAME :
TYPE : CCVRP
COMMENT :
DIMENSION : 321
CAPACITY : 1000
EDGE_WEIGHT_TYPE : EUC_2D_DBL
NODE_COORD_TYPE: TWOD_COORD
NODE_COORD_SECTION
1 0.0000 0.0000
2 3.0000 1.0000
3 3.0000 3.0000
4 1.0000 3.0000
5 -1.0000 3.0000
6 -3.0000 3.0000
7 -3.0000 1.0000
8 -3.0000 -1.0000
9 -3.0000 -3.0000
10 -1.0000 -3.0000
11 1.0000 -3.0000
12 3.0000 -3.0000
13 3.0000 -1.0000
14 5.0000 1.0000
15 5.0000 3.0000
16 5.0000 5.0000
17 3.0000 5.0000
18 1.0000 5.0000
19 -1.0000 5.0000
20 -3.0000 5.0000
21 -5.0000 5.0000
22 -5.0000 3.0000
23 -5.0000 1.0000
24 -5.0000 -1.0000
25 -5.0000 -3.0000
26 -5.0000 -5.0000
27 -3.0000 -5.0000
28 -1.0000 -5.0000
29 1.0000 -5.0000
30 3.0000 -5.0000
31 5.0000 -5.0000
32 5.0000 -3.0000
33 5.0000 -1.0000
34 7.0000 1.0000
35 7.0000 3.0000
36 7.0000 5.0000
37 7.0000 7.0000
38 5.0000 7.0000
39 3.0000 7.0000
40 1.0000 7.0000
41 -1.0000 7.0000
42 -3.0000 7.0000
43 -5.0000 7.0000
44 -7.0000 7.0000
45 -7.0000 5.0000
46 -7.0000 3.0000
47 -7.0000 1.0000
48 -7.0000 -1.0000
49 -7.0000 -3.0000
50 -7.0000 -5.0000
51 -7.0000 -7.0000
52 -5.0000 -7.0000
53 -3.0000 -7.0000
54 -1.0000 -7.0000
55 1.0000 -7.0000
56 3.0000 -7.0000
57 5.0000 -7.0000
58 7.0000 -7.0000
59 7.0000 -5.0000
60 7.0000 -3.0000
61 7.0000 -1.0000
62 9.0000 1.0000
63 9.0000 3.0000
64 9.0000 5.0000
65 9.0000 7.0000
66 9.0000 9.0000
67 7.0000 9.0000
68 5.0000 9.0000
69 3.0000 9.0000
70 1.0000 9.0000
71 -1.0000 9.0000
72 -3.0000 9.0000
73 -5.0000 9.0000
74 -7.0000 9.0000
75 -9.0000 9.0000
76 -9.0000 7.0000
77 -9.0000 5.0000
78 -9.0000 3.0000
79 -9.0000 1.0000
80 -9.0000 -1.0000
81 -9.0000 -3.0000
82 -9.0000 -5.0000
83 -9.0000 -7.0000
84 -9.0000 -9.0000
85 -7.0000 -9.0000
86 -5.0000 -9.0000
87 -3.0000 -9.0000
88 -1.0000 -9.0000
89 1.0000 -9.0000
90 3.0000 -9.0000
91 5.0000 -9.0000
92 7.0000 -9.0000
93 9.0000 -9.0000
94 9.0000 -7.0000
95 9.0000 -5.0000
96 9.0000 -3.0000
97 9.0000 -1.0000
98 11.0000 1.0000
99 11.0000 3.0000
100 11.0000 5.0000
101 11.0000 7.0000
102 11.0000 9.0000
103 11.0000 11.0000
104 9.0000 11.0000
105 7.0000 11.0000
106 5.0000 11.0000
107 3.0000 11.0000
108 1.0000 11.0000
109 -1.0000 11.0000
110 -3.0000 11.0000
111 -5.0000 11.0000
112 -7.0000 11.0000
113 -9.0000 11.0000
114 -11.0000 11.0000
115 -11.0000 9.0000
116 -11.0000 7.0000
117 -11.0000 5.0000
118 -11.0000 3.0000
119 -11.0000 1.0000
120 -11.0000 -1.0000
121 -11.0000 -3.0000
122 -11.0000 -5.0000
123 -11.0000 -7.0000
124 -11.0000 -9.0000
125 -11.0000 -11.0000
126 -9.0000 -11.0000
127 -7.0000 -11.0000
128 -5.0000 -11.0000
129 -3.0000 -11.0000
130 -1.0000 -11.0000
131 1.0000 -11.0000
132 3.0000 -11.0000
133 5.0000 -11.0000
134 7.0000 -11.0000
135 9.0000 -11.0000
136 11.0000 -11.0000
137 11.0000 -9.0000
138 11.0000 -7.0000
139 11.0000 -5.0000
140 11.0000 -3.0000
141 11.0000 -1.0000
142 13.0000 1.0000
143 13.0000 3.0000
144 13.0000 5.0000
145 13.0000 7.0000
146 13.0000 9.0000
147 13.0000 11.0000
148 13.0000 13.0000
149 11.0000 13.0000
150 9.0000 13.0000
151 7.0000 13.0000
152 5.0000 13.0000
153 3.0000 13.0000
154 1.0000 13.0000
155 -1.0000 13.0000
156 -3.0000 13.0000
157 -5.0000 13.0000
158 -7.0000 13.0000
159 -9.0000 13.0000
160 -11.0000 13.0000
161 -13.0000 13.0000
162 -13.0000 11.0000
163 -13.0000 9.0000
164 -13.0000 7.0000
165 -13.0000 5.0000
166 -13.0000 3.0000
167 -13.0000 1.0000
168 -13.0000 -1.0000
169 -13.0000 -3.0000
170 -13.0000 -5.0000
171 -13.0000 -7.0000
172 -13.0000 -9.0000
173 -13.0000 -11.0000
174 -13.0000 -13.0000
175 -11.0000 -13.0000
176 -9.0000 -13.0000
177 -7.0000 -13.0000
178 -5.0000 -13.0000
179 -3.0000 -13.0000
180 -1.0000 -13.0000
181 1.0000 -13.0000
182 3.0000 -13.0000
183 5.0000 -13.0000
184 7.0000 -13.0000
185 9.0000 -13.0000
186 11.0000 -13.0000
187 13.0000 -13.0000
188 13.0000 -11.0000
189 13.0000 -9.0000
190 13.0000 -7.0000
191 13.0000 -5.0000
192 13.0000 -3.0000
193 13.0000 -1.0000
194 15.0000 1.0000
195 15.0000 3.0000
196 15.0000 5.0000
197 15.0000 7.0000
198 15.0000 9.0000
199 15.0000 11.0000
200 15.0000 13.0000
201 15.0000 15.0000
202 13.0000 15.0000
203 11.0000 15.0000
204 9.0000 15.0000
205 7.0000 15.0000
206 5.0000 15.0000
207 3.0000 15.0000
208 1.0000 15.0000
209 -1.0000 15.0000
210 -3.0000 15.0000
211 -5.0000 15.0000
212 -7.0000 15.0000
213 -9.0000 15.0000
214 -11.0000 15.0000
215 -13.0000 15.0000
216 -15.0000 15.0000
217 -15.0000 13.0000
218 -15.0000 11.0000
219 -15.0000 9.0000
220 -15.0000 7.0000
221 -15.0000 5.0000
222 -15.0000 3.0000
223 -15.0000 1.0000
224 -15.0000 -1.0000
225 -15.0000 -3.0000
226 -15.0000 -5.0000
227 -15.0000 -7.0000
228 -15.0000 -9.0000
229 -15.0000 -11.0000
230 -15.0000 -13.0000
231 -15.0000 -15.0000
232 -13.0000 -15.0000
233 -11.0000 -15.0000
234 -9.0000 -15.0000
235 -7.0000 -15.0000
236 -5.0000 -15.0000
237 -3.0000 -15.0000
238 -1.0000 -15.0000
239 1.0000 -15.0000
240 3.0000 -15.0000
241 5.0000 -15.0000
242 7.0000 -15.0000
243 9.0000 -15.0000
244 11.0000 -15.0000
245 13.0000 -15.0000
246 15.0000 -15.0000
247 15.0000 -13.0000
248 15.0000 -11.0000
249 15.0000 -9.0000
250 15.0000 -7.0000
251 15.0000 -5.0000
252 15.0000 -3.0000
253 15.0000 -1.0000
254 17.0000 1.0000
255 17.0000 3.0000
256 17.0000 5.0000
257 17.0000 7.0000
258 17.0000 9.0000
259 17.0000 11.0000
260 17.0000 13.0000
261 17.0000 15.0000
262 17.0000 17.0000
263 15.0000 17.0000
264 13.0000 17.0000
265 11.0000 17.0000
266 9.0000 17.0000
267 7.0000 17.0000
268 5.0000 17.0000
269 3.0000 17.0000
270 1.0000 17.0000
271 -1.0000 17.0000
272 -3.0000 17.0000
273 -5.0000 17.0000
274 -7.0000 17.0000
275 -9.0000 17.0000
276 -11.0000 17.0000
277 -13.0000 17.0000
278 -15.0000 17.0000
279 -17.0000 17.0000
280 -17.0000 15.0000
281 -17.0000 13.0000
282 -17.0000 11.0000
283 -17.0000 9.0000
284 -17.0000 7.0000
285 -17.0000 5.0000
286 -17.0000 3.0000
287 -17.0000 1.0000
288 -17.0000 -1.0000
289 -17.0000 -3.0000
290 -17.0000 -5.0000
291 -17.0000 -7.0000
292 -17.0000 -9.0000
293 -17.0000 -11.0000
294 -17.0000 -13.0000
295 -17.0000 -15.0000
296 -17.0000 -17.0000
297 -15.0000 -17.0000
298 -13.0000 -17.0000
299 -11.0000 -17.0000
300 -9.0000 -17.0000
301 -7.0000 -17.0000
302 -5.0000 -17.0000
303 -3.0000 -17.0000
304 -1.0000 -17.0000
305 1.0000 -17.0000
306 3.0000 -17.0000
307 5.0000 -17.0000
308 7.0000 -17.0000
309 9.0000 -17.0000
310 11.0000 -17.0000
311 13.0000 -17.0000
312 15.0000 -17.0000
313 17.0000 -17.0000
314 17.0000 -15.0000
315 17.0000 -13.0000
316 17.0000 -11.0000
317 17.0000 -9.0000
318 17.0000 -7.0000
319 17.0000 -5.0000
320 17.0000 -3.0000
321 17.0000 -1.0000
DEMAND_SECTION
1 0
2 300
3 300
4 300
5 300
6 300
7 300
8 300
9 300
10 300
11 300
12 300
13 300
14 180
15 180
16 180
17 180
18 180
19 180
20 180
21 180
22 180
23 180
24 180
25 180
26 180
27 180
28 180
29 180
30 180
31 180
32 180
33 180
34 128
35 128
36 128
37 128
38 128
39 128
40 128
41 128
42 128
43 128
44 128
45 128
46 128
47 128
48 128
49 128
50 128
51 128
52 128
53 128
54 128
55 128
56 128
57 128
58 128
59 128
60 128
61 128
62 100
63 100
64 100
65 100
66 100
67 100
68 100
69 100
70 100
71 100
72 100
73 100
74 100
75 100
76 100
77 100
78 100
79 100
80 100
81 100
82 100
83 100
84 100
85 100
86 100
87 100
88 100
89 100
90 100
91 100
92 100
93 100
94 100
95 100
96 100
97 100
98 81
99 81
100 81
101 81
102 81
103 81
104 81
105 81
106 81
107 81
108 81
109 81
110 81
111 81
112 81
113 81
114 81
115 81
116 81
117 81
118 81
119 81
120 81
121 81
122 81
123 81
124 81
125 81
126 81
127 81
128 81
129 81
130 81
131 81
132 81
133 81
134 81
135 81
136 81
137 81
138 81
139 81
140 81
141 81
142 69
143 69
144 69
145 69
146 69
147 69
148 69
149 69
150 69
151 69
152 69
153 69
154 69
155 69
156 69
157 69
158 69
159 69
160 69
161 69
162 69
163 69
164 69
165 69
166 69
167 69
168 69
169 69
170 69
171 69
172 69
173 69
174 69
175 69
176 69
177 69
178 69
179 69
180 69
181 69
182 69
183 69
184 69
185 69
186 69
187 69
188 69
189 69
190 69
191 69
192 69
193 69
194 60
195 60
196 60
197 60
198 60
199 60
200 60
201 60
202 60
203 60
204 60
205 60
206 60
207 60
208 60
209 60
210 60
211 60
212 60
213 60
214 60
215 60
216 60
217 60
218 60
219 60
220 60
221 60
222 60
223 60
224 60
225 60
226 60
227 60
228 60
229 60
230 60
231 60
232 60
233 60
234 60
235 60
236 60
237 60
238 60
239 60
240 60
241 60
242 60
243 60
244 60
245 60
246 60
247 60
248 60
249 60
250 60
251 60
252 60
253 60
254 52
255 52
256 52
257 52
258 52
259 52
260 52
261 52
262 52
263 52
264 52
265 52
266 52
267 52
268 52
269 52
270 52
271 52
272 52
273 52
274 52
275 52
276 52
277 52
278 52
279 52
280 52
281 52
282 52
283 52
284 52
285 52
286 52
287 52
288 52
289 52
290 52
291 52
292 52
293 52
294 52
295 52
296 52
297 52
298 52
299 52
300 52
301 52
302 52
303 52
304 52
305 52
306 52
307 52
308 52
309 52
310 52
311 52
312 52
313 52
314 52
315 52
316 52
317 52
318 52
319 52
320 52
321 52
CLUSTER_SECTION
1 113
2 7
3 8
4 6
5 5
6 9
7 4
8 10
9 11
10 12
11 13
12 14
13 15
14 16
15 17
16 18
17 19
18 20
19 21
20 22
21 23
22 24
23 25
24 3
25 26
26 27
27 28
28 29
29 30
30 31
31 32
32 33
33 34
34 35
35 35
36 36
37 36
38 37
39 37
40 38
41 38
42 39
43 39
44 40
45 40
46 41
47 41
48 42
49 2
50 43
51 43
52 44
53 44
54 45
55 45
56 46
57 46
58 47
59 47
60 48
61 48
62 49
63 49
64 50
65 50
66 51
67 51
68 52
69 52
70 53
71 53
72 54
73 54
74 55
75 55
76 55
77 56
78 56
79 42
80 57
81 57
82 1
83 1
84 58
85 58
86 59
87 59
88 60
89 60
90 61
91 61
92 62
93 62
94 62
95 63
96 63
97 49
98 64
99 50
100 65
101 51
102 65
103 66
104 66
105 52
106 67
107 53
108 68
109 54
110 68
111 69
112 69
113 70
114 70
115 70
116 56
117 71
118 71
119 57
120 72
121 72
122 73
123 1
124 58
125 74
126 74
127 59
128 75
129 60
130 76
131 61
132 76
133 77
134 77
135 78
136 78
137 78
138 63
139 79
140 79
141 64
142 64
143 64
144 65
145 65
146 66
147 66
148 80
149 80
150 81
151 67
152 67
153 67
154 68
155 68
156 69
157 69
158 82
159 82
160 83
161 83
162 83
163 84
164 71
165 71
166 85
167 72
168 72
169 73
170 73
171 73
172 74
173 74
174 86
175 86
176 87
177 75
178 75
179 75
180 76
181 76
182 77
183 77
184 88
185 88
186 89
187 89
188 89
189 90
190 79
191 79
192 91
193 91
194 92
195 92
196 93
197 93
198 93
199 80
200 80
201 94
202 94
203 81
204 81
205 81
206 95
207 95
208 96
209 96
210 96
211 82
212 82
213 83
214 97
215 97
216 98
217 98
218 84
219 84
220 84
221 85
222 85
223 85
224 99
225 99
226 100
227 100
228 100
229 86
230 86
231 101
232 101
233 87
234 87
235 87
236 102
237 102
238 103
239 103
240 103
241 88
242 88
243 89
244 104
245 104
246 105
247 105
248 90
249 90
250 90
251 91
252 91
253 92
254 92
255 92
256 93
257 93
258 106
259 106
260 94
261 94
262 94
263 106
264 106
265 106
266 107
267 95
268 95
269 95
270 96
271 96
272 107
273 107
274 107
275 97
276 97
277 97
278 98
279 98
280 98
281 108
282 108
283 108
284 108
285 108
286 109
287 99
288 99
289 99
290 100
291 100
292 109
293 109
294 101
295 101
296 101
297 109
298 109
299 110
300 110
301 102
302 102
303 102
304 103
305 103
306 110
307 110
308 110
309 104
310 104
311 104
312 105
313 105
314 105
315 111
316 111
317 111
318 111
319 111
320 112
321 107
DEPOT_SECTION
1
-1
EOF
